; benchmark generated from python API
(set-info :status unknown)
(declare-datatypes ((RealState 0)) (((RMk1 (rval1 Real)) (RMk2 (rval2 Real)))))
 (assert
 (forall ((|v11:0| Real) )(forall ((|v10:1| Real) )(forall ((|v9:2| Real) )(forall ((|v8:3| Real) )(exists ((|v7:4_st| RealState) (val!4332 Real) )(exists ((|v6:5_st| RealState) (val!4333 Real) )(exists ((|v5:6_st| RealState) (val!4334 Real) )(exists ((|v4:7_st| RealState) (val!4335 Real) )(forall ((|v3:8| Real) )(forall ((|v2:9| Real) )(forall ((|v1:10| Real) )(forall ((|v0:11| Real) )(let ((?x532 (- 7.0)))
 (let ((?x2964 (* 19.0 |v0:11|)))
 (let ((?x678 (+ (+ (+ (* 11.0 (rval2 |v5:6_st|)) (* (- 15.0) |v2:9|)) (* 5.0 |v9:2|)) ?x2964)))
 (let ((?x1961 (+ (+ (* (- 8.0) (rval2 |v6:5_st|)) (* 16.0 |v8:3|)) (* (- 12.0) (rval2 |v4:7_st|)))))
 (let ((?x1628 (- 10.0)))
 (let ((?x1979 (+ (+ (+ (* 20.0 |v3:8|) (* (- 4.0) |v8:3|)) (* 5.0 |v10:1|)) (* (- 11.0) (rval2 |v6:5_st|)))))
 (let ((?x286 (- 15.0)))
 (let ((?x889 (* ?x286 |v3:8|)))
 (let ((?x27 (+ (+ (+ (* 0.0 (rval2 |v4:7_st|)) (* (- 6.0) |v11:0|)) ?x889) (* 17.0 |v11:0|))))
 (let (($x211 (and (or (<= ?x27 13.0) (<= ?x1979 ?x1628)) (and (<= (+ ?x1961 (* 3.0 (rval2 |v4:7_st|))) 5.0) (<= ?x678 ?x532)))))
 (let ((?x1774 (- 11.0)))
 (let ((?x109 (* 7.0 |v10:1|)))
 (let ((?x2472 (+ (+ (* ?x1774 |v11:0|) (* (- 14.0) |v8:3|)) (* (- 20.0) (rval2 |v4:7_st|)))))
 (let ((?x2923 (- 19.0)))
 (let ((?x1374 (* ?x2923 |v1:10|)))
 (let ((?x411 (+ (+ (+ (* (- 13.0) |v3:8|) (* ?x2923 |v2:9|)) (* ?x286 (rval2 |v5:6_st|))) ?x1374)))
 (let ((?x2583 (- 5.0)))
 (let ((?x1123 (* 8.0 |v3:8|)))
 (let ((?x1676 (* 10.0 |v8:3|)))
 (let ((?x2433 (+ (+ (+ (* 6.0 (rval2 |v5:6_st|)) (* (- 8.0) (rval2 |v6:5_st|))) ?x1676) ?x1123)))
 (let ((?x2324 (- 1.0)))
 (let ((?x1325 (- 8.0)))
 (let ((?x1016 (* ?x1325 |v8:3|)))
 (let ((?x1916 (+ (+ (+ (* 0.0 |v8:3|) (* (- 14.0) |v11:0|)) (* (- 3.0) |v0:11|)) ?x1016)))
 (let (($x665 (and (or (<= ?x1916 ?x2324) (<= ?x2433 ?x2583)) (and (<= ?x411 4.0) (<= (+ ?x2472 ?x109) ?x1774)))))
 (let ((?x574 (- 3.0)))
 (let ((?x2998 (* ?x574 |v2:9|)))
 (let ((?x2373 (+ (+ (* 10.0 |v2:9|) (* (- 17.0) |v0:11|)) ?x2998)))
 (let ((?x701 (- 9.0)))
 (let (($x3119 (<= (+ (+ (+ (rval2 |v5:6_st|) ?x1016) (* 11.0 |v10:1|)) (* 2.0 |v10:1|)) ?x701)))
 (let ((?x1228 (+ (+ (* (- 4.0) (rval2 |v7:4_st|)) (* (- 4.0) (rval2 |v6:5_st|))) (* (- 14.0) (rval2 |v6:5_st|)))))
 (let ((?x113 (* 20.0 |v8:3|)))
 (let ((?x3192 (+ (+ (+ (* 20.0 (rval2 |v4:7_st|)) (* 13.0 |v8:3|)) (* 7.0 |v11:0|)) ?x113)))
 (let ((?x1050 (- 16.0)))
 (let ((?x2471 (* ?x1050 |v0:11|)))
 (let ((?x3133 (+ (+ (+ (* 4.0 |v1:10|) (* 9.0 (rval2 |v6:5_st|))) (* ?x532 |v10:1|)) ?x2471)))
 (let (($x3053 (and (and (<= ?x3133 11.0) (<= ?x3192 11.0)) (or (<= (+ ?x1228 (* ?x1628 (rval2 |v7:4_st|))) 18.0) $x3119))))
 (let ((?x2522 (* 12.0 |v8:3|)))
 (let ((?x3139 (+ (+ (+ (* 15.0 (rval2 |v4:7_st|)) (* ?x2324 |v2:9|)) (* ?x286 |v11:0|)) ?x2522)))
 (let ((?x268 (- 12.0)))
 (let ((?x1568 (* 4.0 |v2:9|)))
 (let (($x2275 (<= (+ (+ (+ (* 7.0 (rval2 |v6:5_st|)) (* ?x1325 |v11:0|)) ?x1016) ?x1568) ?x268)))
 (let ((?x1633 (* 15.0 |v11:0|)))
 (let ((?x502 (+ (+ (+ (* ?x1628 |v1:10|) (* 13.0 (rval2 |v4:7_st|))) (* ?x2324 |v2:9|)) ?x1633)))
 (let ((?x894 (- 20.0)))
 (let ((?x1260 (* ?x894 |v2:9|)))
 (let ((?x1977 (+ (+ (+ (* 6.0 (rval2 |v7:4_st|)) (* ?x286 |v2:9|)) (* 16.0 |v0:11|)) ?x1260)))
 (let ((?x2710 (* 9.0 |v3:8|)))
 (let ((?x1719 (+ (+ (+ (* 18.0 |v3:8|) (* ?x701 (rval2 |v6:5_st|))) (* ?x1050 |v3:8|)) ?x2710)))
 (let ((?x1441 (* 2.0 |v9:2|)))
 (let ((?x934 (rval2 |v6:5_st|)))
 (let ((?x750 (* 11.0 ?x934)))
 (let (($x2525 (<= (+ (+ (+ (* (- 18.0) |v11:0|) (* 19.0 (rval2 |v5:6_st|))) ?x750) ?x1441) 7.0)))
 (let ((?x1439 (* 17.0 |v10:1|)))
 (let (($x772 (<= (+ (+ (+ (* ?x286 |v9:2|) (* ?x894 |v1:10|)) (* 16.0 |v3:8|)) ?x1439) 0.0)))
 (let ((?x1059 (* ?x268 |v1:10|)))
 (let (($x1316 (<= (+ (+ (+ (* 7.0 ?x934) (* 16.0 |v9:2|)) (* ?x2583 |v10:1|)) ?x1059) 17.0)))
 (let ((?x1736 (* 14.0 |v1:10|)))
 (let (($x2090 (<= (+ (+ (+ |v0:11| (* 6.0 |v11:0|)) (* (- 13.0) |v9:2|)) ?x1736) 12.0)))
 (let ((?x1462 (* 17.0 |v0:11|)))
 (let (($x2770 (<= (+ (+ (+ (* ?x574 (rval2 |v5:6_st|)) ?x1441) (* 16.0 (rval2 |v5:6_st|))) ?x1462) ?x574)))
 (let ((?x2930 (- 2.0)))
 (let (($x135 (<= (+ (+ (+ ?x109 (* 18.0 |v8:3|)) (* ?x532 |v11:0|)) (* 19.0 |v3:8|)) ?x2930)))
 (let (($x978 (or (and (and $x135 $x2770) (and $x2090 $x1316)) (or (or $x772 $x2525) (or (<= ?x1719 ?x2324) (<= ?x1977 17.0))))))
 (let (($x2592 (and $x978 (or (and (<= ?x502 20.0) (and $x2275 (<= ?x3139 ?x1774))) $x3053))))
 (let (($x1510 (and $x2592 (or (<= (+ ?x2373 (* 2.0 (rval2 |v4:7_st|))) 2.0) (and $x665 $x211)))))
 (let ((?x760 (rval2 |v7:4_st|)))
 (let ((?x45 (* 11.0 ?x760)))
 (let ((?x2082 (+ (+ (+ (* ?x286 (rval2 |v5:6_st|)) (* (- 13.0) |v0:11|)) ?x45) (* 16.0 (rval2 |v4:7_st|)))))
 (let ((?x1944 (- 13.0)))
 (let ((?x1581 (- 17.0)))
 (let ((?x2042 (* ?x1581 |v0:11|)))
 (let (($x1524 (<= (+ (+ (+ (* ?x268 |v11:0|) (* ?x1325 |v10:1|)) (* ?x532 |v2:9|)) ?x2042) ?x1944)))
 (let ((?x2793 (+ (+ (+ (* ?x1628 ?x934) (* (- 18.0) (rval2 |v5:6_st|))) (* ?x701 |v1:10|)) (* 4.0 |v9:2|))))
 (let (($x3092 (<= (+ (+ (+ (* ?x532 |v11:0|) ?x1462) (* ?x2324 |v9:2|)) (* 14.0 |v10:1|)) 12.0)))
 (let ((?x276 (+ (+ (* (- 6.0) (rval2 |v4:7_st|)) (* 7.0 (rval2 |v4:7_st|))) (* ?x268 |v9:2|))))
 (let (($x380 (<= (+ (+ (+ (* 9.0 ?x934) (* ?x2583 |v11:0|)) ?x2998) (* 13.0 |v8:3|)) ?x1944)))
 (let ((?x3234 (* ?x532 |v8:3|)))
 (let ((?x2487 (+ (+ (+ (* 12.0 (rval2 |v4:7_st|)) (* ?x1774 |v8:3|)) (* 9.0 |v8:3|)) ?x3234)))
 (let ((?x1078 (* 0.0 |v8:3|)))
 (let (($x281 (<= (+ (+ (+ (* 4.0 |v10:1|) (* 17.0 ?x934)) (* ?x1628 |v10:1|)) ?x1078) 19.0)))
 (let (($x615 (or (and $x281 (<= ?x2487 6.0)) (and $x380 (<= (+ ?x276 (* ?x1774 ?x760)) ?x2583)))))
 (let ((?x2982 (* 10.0 |v2:9|)))
 (let ((?x1711 (rval2 |v5:6_st|)))
 (let ((?x2526 (* 4.0 ?x1711)))
 (let (($x2889 (<= (+ (+ (+ (* (- 4.0) (rval2 |v4:7_st|)) (* ?x1050 |v10:1|)) ?x2526) ?x2982) 14.0)))
 (let (($x3093 (<= (+ (+ (+ (* (- 4.0) |v10:1|) (* 19.0 ?x1711)) ?x3234) (* ?x1581 ?x934)) 7.0)))
 (let (($x115 (<= (+ (+ (+ (* ?x2930 |v11:0|) (* 7.0 ?x760)) (* ?x701 |v1:10|)) ?x1059) 16.0)))
 (let ((?x1872 (+ (+ (+ (* ?x2583 ?x760) (* 8.0 |v8:3|)) (* 13.0 (rval2 |v4:7_st|))) (* ?x2324 |v11:0|))))
 (let ((?x428 (* 5.0 |v11:0|)))
 (let (($x794 (<= (+ (+ (+ (* 15.0 |v2:9|) (* 8.0 ?x1711)) (* 18.0 |v3:8|)) ?x428) 14.0)))
 (let ((?x3193 (+ (+ (+ (* ?x1050 |v8:3|) (* 7.0 ?x934)) (* 7.0 |v1:10|)) (* ?x532 ?x760))))
 (let (($x2072 (and (and (or (<= ?x3193 ?x2324) $x794) (and (<= ?x1872 18.0) $x115)) (and $x3093 $x2889))))
 (let (($x840 (or $x2072 (and $x615 (and (or $x3092 (<= ?x2793 ?x268)) (or $x1524 (<= ?x2082 ?x574)))))))
 (let ((?x2779 (* ?x701 |v1:10|)))
 (let (($x546 (<= (+ (+ (+ (* ?x1628 ?x1711) (* 5.0 ?x934)) (* 9.0 ?x1711)) ?x2779) 13.0)))
 (let ((?x3045 (- 14.0)))
 (let (($x1154 (<= (+ (+ (+ (* 10.0 |v1:10|) (* 15.0 |v8:3|)) |v8:3|) (* ?x2583 |v0:11|)) ?x3045)))
 (let ((?x2723 (* 2.0 |v0:11|)))
 (let (($x2260 (<= (+ (+ (+ (* 20.0 |v10:1|) (* ?x2324 ?x760)) (* 13.0 ?x1711)) ?x2723) ?x2930)))
 (let ((?x2628 (* 11.0 ?x1711)))
 (let (($x704 (<= (+ (+ (+ (* ?x532 |v10:1|) (* 7.0 |v1:10|)) (* 9.0 ?x760)) ?x2628) ?x286)))
 (let ((?x1640 (* ?x701 |v2:9|)))
 (let ((?x1401 (+ (+ (+ (* ?x701 ?x1711) (* (- 6.0) |v0:11|)) (* 15.0 (rval2 |v4:7_st|))) ?x1640)))
 (let ((?x1525 (* ?x268 |v0:11|)))
 (let (($x2210 (<= (+ (+ (+ (* 13.0 |v3:8|) (* 9.0 |v8:3|)) (* 5.0 |v0:11|)) ?x1525) ?x1581)))
 (let ((?x2768 (* ?x532 |v11:0|)))
 (let (($x2438 (<= (+ (+ (+ (* ?x1944 ?x1711) (* ?x286 ?x1711)) (* 4.0 |v0:11|)) ?x2768) ?x268)))
 (let ((?x977 (- 4.0)))
 (let ((?x1693 (+ (+ (+ ?x1676 (* (- 6.0) ?x934)) (* (- 6.0) |v11:0|)) (* ?x1581 ?x760))))
 (let (($x3208 (and (or (and (<= ?x1693 ?x977) $x2438) (or $x2210 (<= ?x1401 15.0))) (and (and $x704 $x2260) (or $x1154 $x546)))))
 (let ((?x740 (* ?x977 |v1:10|)))
 (let (($x698 (<= (+ (+ (+ (* ?x977 ?x1711) (* ?x3045 |v2:9|)) (* ?x894 |v0:11|)) ?x740) ?x1628)))
 (let ((?x190 (+ (+ (+ (* ?x574 ?x760) (* 17.0 ?x760)) (* ?x2930 |v11:0|)) (* ?x894 |v8:3|))))
 (let ((?x931 (+ (+ (+ (* ?x1628 |v2:9|) (* 5.0 |v3:8|)) (* 16.0 |v8:3|)) (* 0.0 |v9:2|))))
 (let (($x1118 (<= (+ (+ (+ (* 16.0 |v1:10|) ?x45) (* 11.0 |v0:11|)) (* 16.0 ?x760)) ?x2583)))
 (let (($x461 (or (<= (+ (+ (+ (* 10.0 |v1:10|) ?x1059) (* 2.0 |v8:3|)) |v2:9|) ?x701) $x1118)))
 (let ((?x1101 (+ (+ (+ (* ?x2583 |v3:8|) (* 10.0 |v11:0|)) (* ?x1050 |v3:8|)) (* ?x2583 ?x934))))
 (let ((?x2268 (* 15.0 |v1:10|)))
 (let (($x396 (<= (+ (+ (+ (rval2 |v4:7_st|) (* 17.0 |v2:9|)) (* ?x1628 |v0:11|)) ?x2268) 18.0)))
 (let (($x2569 (or (and (and $x396 (<= ?x1101 ?x2923)) $x461) (and (<= ?x931 5.0) (or (<= ?x190 1.0) $x698)))))
 (let (($x3027 (not (= |v4:7_st| (RMk1 val!4335)))))
 (let (($x820 (not (= |v5:6_st| (RMk1 val!4334)))))
 (let (($x1286 (not (= |v6:5_st| (RMk1 val!4333)))))
 (let (($x2483 (not (= |v7:4_st| (RMk1 val!4332)))))
 (and $x2483 $x1286 $x820 $x3027 (or (and (and $x2569 $x3208) $x840) $x1510))))))))))))))))))))))))))))))))))))))))))))))))))))))))))))))))))))))))))))))))))))))))))))))))))))))))))))))))))))))))))))))))
 )
 )
 )
 )
 )
 )
 )
 )
 )
 )
 )
 )
(check-sat)
